/*********************************************
 * OPL 12.6.0.0 Data
 * Author: jens
 * Creation Date: Oct 6, 2014 at 6:30:39 PM
 *********************************************/

n = 9;

dim = 2;

vertices = [
    [  2.51 -0.71 ]
    [  1.90 -0.66 ]
    [  2.11 -0.91 ]
    [  2.35 -1.13 ]
    [  2.16 -1.22 ]
    [ -1.34 -1.02 ]
    [ -1.12 -0.55 ]
    [ -0.88 -0.92 ]
    [  1.89 -0.50 ]
];